NAME : cvrp-A-U-8-10.716.tour
COMMENT : Length = 716
COMMENT : Found by LKH [Keld Helsgaun] Thu May 17 22:42:39 2018
TYPE : TOUR
DIMENSION : 31
TOUR_SECTION
1
20
22
29
7
11
6
14
4
8
3
15
19
25
24
23
21
31
17
28
26
30
27
5
2
16
10
9
12
13
18
-1
EOF
